Version identifier: 22.1.0.0 | 2022-03-09 | 1a383f8ce
CPXPARAM_Threads                                 1
CPXPARAM_MIP_Strategy_VariableSelect             3
CPXPARAM_TimeLimit                               599.99997083200003
1 of 1 MIP starts provided solutions.
MIP start 'm1' defined initial solution with objective 1.0000.
Tried aggregator 1 time.
MIP Presolve eliminated 42 rows and 0 columns.
MIP Presolve modified 248 coefficients.
Reduced MIP has 3284 rows, 7800 columns, and 179890 nonzeros.
Reduced MIP has 7800 binaries, 0 generals, 0 SOSs, and 0 indicators.
Presolve time = 0.19 sec. (297.69 ticks)
Probing time = 0.03 sec. (31.54 ticks)
Tried aggregator 1 time.
Detecting symmetries...
MIP Presolve modified 13 coefficients.
Reduced MIP has 3284 rows, 7800 columns, and 180264 nonzeros.
Reduced MIP has 7800 binaries, 0 generals, 0 SOSs, and 0 indicators.
Presolve time = 0.14 sec. (211.46 ticks)
Probing time = 0.03 sec. (31.56 ticks)
Clique table members: 951.
MIP emphasis: balance optimality and feasibility.
MIP search method: dynamic search.
Parallel mode: none, using 1 thread.
Root relaxation solution time = 0.39 sec. (506.49 ticks)

        Nodes                                         Cuts/
   Node  Left     Objective  IInf  Best Integer    Best Bound    ItCnt     Gap

*     0+    0                            1.0000    45150.0000              --- 
      0     0      300.0000   396        1.0000      300.0000     1971     --- 
*     0+    0                          300.0000      300.0000             0.00%
      0     0        cutoff            300.0000      300.0000     1971    0.00%
Elapsed time = 1.74 sec. (2186.51 ticks, tree = 0.01 MB, solutions = 2)

Root node processing (before b&c):
  Real time             =    1.74 sec. (2187.39 ticks)
Sequential b&c:
  Real time             =    0.00 sec. (0.00 ticks)
                          ------------
Total (root+branch&cut) =    1.74 sec. (2187.39 ticks)
Primal:	300
Dual:	300
Status:	Optimal
Time:	1.79
Sequence:
	8
	23
	23
	23
	4
	16
	11
	23
	4
	16
	16
	16
	12
	20
	14
	16
	16
	0
	23
	21
	4
	0
	13
	21
	21
	23
	0
	4
	2
	19
	19
	23
	4
	13
	2
	4
	8
	19
	19
	4
	19
	12
	4
	21
	13
	0
	2
	23
	24
	18
	23
	4
	2
	24
	13
	17
	20
	2
	6
	23
	0
	2
	4
	0
	3
	23
	4
	2
	3
	8
	2
	0
	23
	17
	15
	6
	2
	4
	0
	2
	4
	11
	2
	0
	0
	23
	2
	2
	0
	23
	23
	2
	2
	4
	5
	12
	2
	19
	8
	22
	7
	0
	8
	15
	0
	2
	12
	12
	22
	24
	14
	0
	0
	2
	23
	2
	4
	23
	0
	23
	14
	15
	10
	10
	20
	14
	21
	24
	20
	12
	2
	23
	7
	20
	13
	23
	4
	2
	14
	4
	6
	17
	10
	20
	23
	0
	14
	0
	22
	0
	23
	2
	0
	14
	4
	17
	17
	13
	20
	2
	1
	0
	17
	12
	12
	2
	0
	2
	12
	12
	12
	2
	2
	16
	12
	12
	3
	23
	10
	2
	23
	16
	14
	16
	12
	2
	0
	9
	6
	4
	14
	7
	4
	12
	24
	22
	8
	8
	6
	4
	6
	6
	8
	5
	20
	0
	2
	10
	13
	2
	4
	2
	0
	0
	23
	0
	4
	11
	0
	0
	8
	20
	9
	13
	4
	8
	23
	4
	0
	2
	13
	20
	0
	23
	2
	20
	10
	24
	7
	14
	15
	0
	8
	20
	14
	6
	6
	15
	13
	0
	4
	0
	14
	15
	23
	17
	16
	20
	16
	14
	23
	20
	12
	14
	2
	4
	0
	12
	10
	20
	12
	13
	0
	0
	7
	13
	0
	10
	20
	10
	12
	15
	10
	10
	10
	4
	13
	0
	4
	22
	12
	2
	0
	10
	8
	13
	6
	6
	15
	0
